\Problem name: 

Minimize
obj: 75 x0 + 45 x1 + 45 x2 + 30 x3 + 30 x6 + 30 x9 + 30 x12 + 30 x13 + 30 x16 + 30 x17
 + 30 x19 + 30 x21 + 30 x22 + 30 x25 + 30 x28 + 30 x31 + 30 x34 + 30 x35 + 30 x38 + 30 x39
 + 30 x41 + 30 x43 + 60 x46 + 30 x47 + 60 x51 + 30 x52 + 30 x56 + 60 x57 + 30 x58 + 30 x61
 + 60 x62 + 30 x63 + 30 x65 + 60 x66 + 30 x68 + 30 x70 + 75 x71 + 45 x72 + 15 x73 + 15 x74
 + 15 x75 + 60 x76 + 30 x77 + 60 x81 + 30 x82 + 60 x86 + 30 x87 + 60 x90 + 30 x91 + 60 x93
 + 30 x95 + 30 x97 + 30 x100 + 30 x103 + 30 x106 + 30 x107 + 30 x110 + 30 x111 + 30 x114 + 30 x115
 + 30 x117 + 30 x119 + 30 x122 + 30 x125 + 30 x128 + 30 x129 + 30 x132 + 30 x133 + 30 x136 + 30 x137
 + 30 x139 + 30 x141 + 30 x144 + 30 x147 + 30 x150 + 30 x151 + 30 x154 + 30 x155 + 30 x158 + 30 x159
 + 30 x161 + 30 x163 + 20 x164 + 20 x165 + 30 x166 + 20 x167 + 20 x168 + 30 x169 + 20 x170 + 20 x171
 + 30 x172 + 20 x173 + 20 x174 + 30 x175 + 20 x176 + 20 x177 + 30 x178 + 20 x179 + 20 x180 + 30 x181
 + 20 x182 + 20 x183 + 30 x184 + 30 x185 + 30 x189 + 30 x196 + 30 x200 + 30 x207 + 30 x211 + 30 x218
 + 30 x222 + 30 x229 + 30 x233 + 30 x240 + 30 x244 + 30 x251 + 30 x255 + 30 x262 + 30 x266 + 30 x273
 + 30 x277 + 30 x284 + 30 x288 + 30 x295 + 30 x299 + 30 x306 + 30 x310 + 30 x317 + 30 x321 + 30 x328
 + 30 x332 + 30 x339 + 30 x343 + 30 x350 + 30 x354 + 30 x361 + 30 x365 + 30 x372 + 30 x376 + 30 x383
 + 30 x387 + 30 x394 + 30 x398 + 30 x405 + 30 x409 + 30 x416 + 30 x420 + 30 x427 + 30 x431 + 30 x438
 + 30 x442 + 30 x449 + 30 x453 + 30 x460 + 30 x464 + 30 x471 + 30 x475 + 30 x482 + 30 x486 + 30 x493
 + 30 x497 + 30 x504 + 30 x508 + 30 x515 + 30 x519 + 30 x526 + 30 x530 + 30 x537 + 30 x541 + 30 x548
 + 30 x552 + 30 x559 + 30 x563 + 9999999 x570 + 9999999 x571 + 9999999 x572 + 9999999 x573 + 9999999 x574 + 9999999 x575 + 9999999 x576
Subject To
cons0:  x0 + x1 + x2 = 1
cons1:  x3 + x4 + x5 = 0
cons2:  x6 + x7 + x8 = 0
cons3:  x9 + x10 + x11 = 0
cons4:  x13 + x14 + x15 = 0
cons5:  x17 + x18 = 0
cons6:  x20 = 0
cons7:  - x0 = 0
cons8:  - x1 - x3 = 0
cons9:  - x2 - x4 - x6 + x12 = 0
cons10:  - x5 - x7 - x9 - x12 + x16 = 0
cons11:  - x8 - x10 - x13 - x16 + x19 = 0
cons12:  - x11 - x14 - x17 - x19 + x21 = 0
cons13:  x15 + x18 + x20 + x21 = 1
cons14:  x22 + x23 + x24 = 1
cons15:  x25 + x26 + x27 = 0
cons16:  x28 + x29 + x30 = 0
cons17:  x31 + x32 + x33 = 0
cons18:  x35 + x36 + x37 = 0
cons19:  x39 + x40 = 0
cons20:  x42 = 0
cons21:  - x22 = 0
cons22:  - x23 - x25 = 0
cons23:  - x24 - x26 - x28 + x34 = 0
cons24:  - x27 - x29 - x31 - x34 + x38 = 0
cons25:  - x30 - x32 - x35 - x38 + x41 = 0
cons26:  - x33 - x36 - x39 - x41 + x43 = 0
cons27:  x37 + x40 + x42 + x43 = 1
cons28:  x44 + x45 = 1
cons29:  x46 + x47 + x48 + x49 + x50 = 0
cons30:  x51 + x52 + x53 + x54 + x55 = 0
cons31:  x57 + x58 + x59 + x60 = 0
cons32:  x62 + x63 + x64 = 0
cons33:  x66 + x67 = 0
cons34:  x69 = 0
cons35:  - x44 = 0
cons36:  - x45 - x46 + x56 = 0
cons37:  - x47 - x51 - x56 + x61 = 0
cons38:  - x48 - x52 - x57 - x61 + x65 = 0
cons39:  - x49 - x53 - x58 - x62 - x65 + x68 = 0
cons40:  - x50 - x54 - x59 - x63 - x66 - x68 + x70 = 0
cons41:  x55 + x60 + x64 + x67 + x69 + x70 = 1
cons42:  x71 + x72 + x73 + x74 + x75 = 1
cons43:  x76 + x77 + x78 + x79 + x80 = 0
cons44:  x81 + x82 + x83 + x84 + x85 = 0
cons45:  x86 + x87 + x88 + x89 = 0
cons46:  x90 + x91 + x92 = 0
cons47:  x93 + x94 = 0
cons48:  x96 = 0
cons49:  - x71 = 0
cons50:  - x72 - x76 = 0
cons51:  - x73 - x77 - x81 = 0
cons52:  - x74 - x78 - x82 - x86 = 0
cons53:  - x75 - x79 - x83 - x87 - x90 + x95 = 0
cons54:  - x80 - x84 - x88 - x91 - x93 - x95 + x97 = 0
cons55:  x85 + x89 + x92 + x94 + x96 + x97 = 1
cons56:  x98 + x99 = 1
cons57:  x100 + x101 + x102 = 0
cons58:  x103 + x104 + x105 = 0
cons59:  x107 + x108 + x109 = 0
cons60:  x111 + x112 + x113 = 0
cons61:  x115 + x116 = 0
cons62:  x118 = 0
cons63:  - x98 = 0
cons64:  - x99 - x100 + x106 = 0
cons65:  - x101 - x103 - x106 + x110 = 0
cons66:  - x102 - x104 - x107 - x110 + x114 = 0
cons67:  - x105 - x108 - x111 - x114 + x117 = 0
cons68:  - x109 - x112 - x115 - x117 + x119 = 0
cons69:  x113 + x116 + x118 + x119 = 1
cons70:  x120 + x121 = 1
cons71:  x122 + x123 + x124 = 0
cons72:  x125 + x126 + x127 = 0
cons73:  x129 + x130 + x131 = 0
cons74:  x133 + x134 + x135 = 0
cons75:  x137 + x138 = 0
cons76:  x140 = 0
cons77:  - x120 = 0
cons78:  - x121 - x122 + x128 = 0
cons79:  - x123 - x125 - x128 + x132 = 0
cons80:  - x124 - x126 - x129 - x132 + x136 = 0
cons81:  - x127 - x130 - x133 - x136 + x139 = 0
cons82:  - x131 - x134 - x137 - x139 + x141 = 0
cons83:  x135 + x138 + x140 + x141 = 1
cons84:  x142 + x143 = 1
cons85:  x144 + x145 + x146 = 0
cons86:  x147 + x148 + x149 = 0
cons87:  x151 + x152 + x153 = 0
cons88:  x155 + x156 + x157 = 0
cons89:  x159 + x160 = 0
cons90:  x162 = 0
cons91:  - x142 = 0
cons92:  - x143 - x144 + x150 = 0
cons93:  - x145 - x147 - x150 + x154 = 0
cons94:  - x146 - x148 - x151 - x154 + x158 = 0
cons95:  - x149 - x152 - x155 - x158 + x161 = 0
cons96:  - x153 - x156 - x159 - x161 + x163 = 0
cons97:  x157 + x160 + x162 + x163 = 1
cons98:  x164 + 7 x570 >= 15
cons99:  - x165 + 7 x570 <= 22
cons100:  - x166 + x570 <= 2
cons101:  x167 + 7 x571 >= 15
cons102:  - x168 + 7 x571 <= 22
cons103:  - x169 + x571 <= 2
cons104:  x170 + 7 x572 >= 7
cons105:  - x171 + 7 x572 <= 11
cons106:  - x172 + x572 <= 2
cons107:  x173 + 7 x573 >= 7
cons108:  - x174 + 7 x573 <= 11
cons109:  - x175 + x573 <= 2
cons110:  x176 + 7 x574 >= 15
cons111:  - x177 + 7 x574 <= 22
cons112:  - x178 + x574 <= 2
cons113:  x179 + 7 x575 >= 15
cons114:  - x180 + 7 x575 <= 22
cons115:  - x181 + x575 <= 2
cons116:  x182 + 7 x576 >= 15
cons117:  - x183 + 7 x576 <= 22
cons118:  - x184 + x576 <= 2
cons119:  x186 + x188 >= 1
cons120:  x185 + x186 + x188 >= 1
cons121:  x190 + x191 >= 1
cons122:  x189 + x190 + x191 >= 2
cons123:  - x193 + x570 + x571 + x572 = 0
cons124:  - x186 - x190 + x193 = 0
cons125:  - x194 + x573 + x574 = 0
cons126:  - x191 + x194 = 0
cons127:  - x195 + x575 + x576 = 0
cons128:  - x188 + x195 = 0
cons129:  x197 + x199 >= 0
cons130:  x196 + x197 + x199 >= 0
cons131:  x201 + x202 >= 0
cons132:  x200 + x201 + x202 >= 1
cons133:  - x204 + x570 + x571 + x572 = 0
cons134:  - x197 - x201 + x204 = 0
cons135:  - x205 + x573 + x574 = 0
cons136:  - x202 + x205 = 0
cons137:  - x206 + x575 + x576 = 0
cons138:  - x199 + x206 = 0
cons139:  x208 + x210 >= 1
cons140:  x207 + x208 + x210 >= 1
cons141:  x212 + x213 >= 1
cons142:  x211 + x212 + x213 >= 1
cons143:  - x215 + x570 + x571 + x572 = 0
cons144:  - x208 - x212 + x215 = 0
cons145:  - x216 + x573 + x574 = 0
cons146:  - x213 + x216 = 0
cons147:  - x217 + x575 + x576 = 0
cons148:  - x210 + x217 = 0
cons149:  x219 + x221 >= 0
cons150:  x218 + x219 + x221 >= 0
cons151:  x223 + x224 >= 0
cons152:  x222 + x223 + x224 >= 1
cons153:  - x226 + x570 + x571 + x572 = 0
cons154:  - x219 - x223 + x226 = 0
cons155:  - x227 + x573 + x574 = 0
cons156:  - x224 + x227 = 0
cons157:  - x228 + x575 + x576 = 0
cons158:  - x221 + x228 = 0
cons159:  x230 + x232 >= 0
cons160:  x229 + x230 + x232 >= 0
cons161:  x234 + x235 >= 0
cons162:  x233 + x234 + x235 >= 1
cons163:  - x237 + x570 + x571 + x572 = 0
cons164:  - x230 - x234 + x237 = 0
cons165:  - x238 + x573 + x574 = 0
cons166:  - x235 + x238 = 0
cons167:  - x239 + x575 + x576 = 0
cons168:  - x232 + x239 = 0
cons169:  x241 + x243 >= 0
cons170:  x240 + x241 + x243 >= 0
cons171:  x245 + x246 >= 1
cons172:  x244 + x245 + x246 >= 1
cons173:  - x248 + x570 + x571 + x572 = 0
cons174:  - x241 - x245 + x248 = 0
cons175:  - x249 + x573 + x574 = 0
cons176:  - x246 + x249 = 0
cons177:  - x250 + x575 + x576 = 0
cons178:  - x243 + x250 = 0
cons179:  x252 + x254 >= 1
cons180:  x251 + x252 + x254 >= 1
cons181:  x256 + x257 >= 1
cons182:  x255 + x256 + x257 >= 1
cons183:  - x259 + x570 + x571 + x572 = 0
cons184:  - x252 - x256 + x259 = 0
cons185:  - x260 + x573 + x574 = 0
cons186:  - x257 + x260 = 0
cons187:  - x261 + x575 + x576 = 0
cons188:  - x254 + x261 = 0
cons189:  x263 + x265 >= 0
cons190:  x262 + x263 + x265 >= 1
cons191:  x267 + x268 >= 1
cons192:  x266 + x267 + x268 >= 1
cons193:  - x270 + x570 + x571 + x572 = 0
cons194:  - x263 - x267 + x270 = 0
cons195:  - x271 + x573 + x574 = 0
cons196:  - x268 + x271 = 0
cons197:  - x272 + x575 + x576 = 0
cons198:  - x265 + x272 = 0
cons199:  x274 + x276 >= 1
cons200:  x273 + x274 + x276 >= 1
cons201:  x278 + x279 >= 0
cons202:  x277 + x278 + x279 >= 0
cons203:  - x281 + x570 + x571 + x572 = 0
cons204:  - x274 - x278 + x281 = 0
cons205:  - x282 + x573 + x574 = 0
cons206:  - x279 + x282 = 0
cons207:  - x283 + x575 + x576 = 0
cons208:  - x276 + x283 = 0
cons209:  x285 + x287 >= 0
cons210:  x284 + x285 + x287 >= 1
cons211:  x289 + x290 >= 0
cons212:  x288 + x289 + x290 >= 1
cons213:  - x292 + x570 + x571 + x572 = 0
cons214:  - x285 - x289 + x292 = 0
cons215:  - x293 + x573 + x574 = 0
cons216:  - x290 + x293 = 0
cons217:  - x294 + x575 + x576 = 0
cons218:  - x287 + x294 = 0
cons219:  x296 + x298 >= 0
cons220:  x295 + x296 + x298 >= 0
cons221:  x300 + x301 >= 1
cons222:  x299 + x300 + x301 >= 1
cons223:  - x303 + x570 + x571 + x572 = 0
cons224:  - x296 - x300 + x303 = 0
cons225:  - x304 + x573 + x574 = 0
cons226:  - x301 + x304 = 0
cons227:  - x305 + x575 + x576 = 0
cons228:  - x298 + x305 = 0
cons229:  x307 + x309 >= 0
cons230:  x306 + x307 + x309 >= 0
cons231:  x311 + x312 >= 1
cons232:  x310 + x311 + x312 >= 1
cons233:  - x314 + x570 + x571 + x572 = 0
cons234:  - x307 - x311 + x314 = 0
cons235:  - x315 + x573 + x574 = 0
cons236:  - x312 + x315 = 0
cons237:  - x316 + x575 + x576 = 0
cons238:  - x309 + x316 = 0
cons239:  x318 + x320 >= 1
cons240:  x317 + x318 + x320 >= 1
cons241:  x322 + x323 >= 0
cons242:  x321 + x322 + x323 >= 1
cons243:  - x325 + x570 + x571 + x572 = 0
cons244:  - x318 - x322 + x325 = 0
cons245:  - x326 + x573 + x574 = 0
cons246:  - x323 + x326 = 0
cons247:  - x327 + x575 + x576 = 0
cons248:  - x320 + x327 = 0
cons249:  x329 + x331 >= 0
cons250:  x328 + x329 + x331 >= 0
cons251:  x333 + x334 >= 0
cons252:  x332 + x333 + x334 >= 0
cons253:  - x336 + x570 + x571 + x572 = 0
cons254:  - x329 - x333 + x336 = 0
cons255:  - x337 + x573 + x574 = 0
cons256:  - x334 + x337 = 0
cons257:  - x338 + x575 + x576 = 0
cons258:  - x331 + x338 = 0
cons259:  x340 + x342 >= 0
cons260:  x339 + x340 + x342 >= 0
cons261:  x344 + x345 >= 0
cons262:  x343 + x344 + x345 >= 1
cons263:  - x347 + x570 + x571 + x572 = 0
cons264:  - x340 - x344 + x347 = 0
cons265:  - x348 + x573 + x574 = 0
cons266:  - x345 + x348 = 0
cons267:  - x349 + x575 + x576 = 0
cons268:  - x342 + x349 = 0
cons269:  x351 + x353 >= 0
cons270:  x350 + x351 + x353 >= 0
cons271:  x355 + x356 >= 0
cons272:  x354 + x355 + x356 >= 1
cons273:  - x358 + x570 + x571 + x572 = 0
cons274:  - x351 - x355 + x358 = 0
cons275:  - x359 + x573 + x574 = 0
cons276:  - x356 + x359 = 0
cons277:  - x360 + x575 + x576 = 0
cons278:  - x353 + x360 = 0
cons279:  x362 + x364 >= 0
cons280:  x361 + x362 + x364 >= 0
cons281:  x366 + x367 >= 1
cons282:  x365 + x366 + x367 >= 1
cons283:  - x369 + x570 + x571 + x572 = 0
cons284:  - x362 - x366 + x369 = 0
cons285:  - x370 + x573 + x574 = 0
cons286:  - x367 + x370 = 0
cons287:  - x371 + x575 + x576 = 0
cons288:  - x364 + x371 = 0
cons289:  x373 + x375 >= 0
cons290:  x372 + x373 + x375 >= 0
cons291:  x377 + x378 >= 0
cons292:  x376 + x377 + x378 >= 1
cons293:  - x380 + x570 + x571 + x572 = 0
cons294:  - x373 - x377 + x380 = 0
cons295:  - x381 + x573 + x574 = 0
cons296:  - x378 + x381 = 0
cons297:  - x382 + x575 + x576 = 0
cons298:  - x375 + x382 = 0
cons299:  x384 + x386 >= 0
cons300:  x383 + x384 + x386 >= 0
cons301:  x388 + x389 >= 1
cons302:  x387 + x388 + x389 >= 1
cons303:  - x391 + x570 + x571 + x572 = 0
cons304:  - x384 - x388 + x391 = 0
cons305:  - x392 + x573 + x574 = 0
cons306:  - x389 + x392 = 0
cons307:  - x393 + x575 + x576 = 0
cons308:  - x386 + x393 = 0
cons309:  x395 + x397 >= 0
cons310:  x394 + x395 + x397 >= 0
cons311:  x399 + x400 >= 0
cons312:  x398 + x399 + x400 >= 0
cons313:  - x402 + x570 + x571 + x572 = 0
cons314:  - x395 - x399 + x402 = 0
cons315:  - x403 + x573 + x574 = 0
cons316:  - x400 + x403 = 0
cons317:  - x404 + x575 + x576 = 0
cons318:  - x397 + x404 = 0
cons319:  x406 + x408 >= 0
cons320:  x405 + x406 + x408 >= 0
cons321:  x410 + x411 >= 1
cons322:  x409 + x410 + x411 >= 1
cons323:  - x413 + x570 + x571 + x572 = 0
cons324:  - x406 - x410 + x413 = 0
cons325:  - x414 + x573 + x574 = 0
cons326:  - x411 + x414 = 0
cons327:  - x415 + x575 + x576 = 0
cons328:  - x408 + x415 = 0
cons329:  x417 + x419 >= 1
cons330:  x416 + x417 + x419 >= 1
cons331:  x421 + x422 >= 1
cons332:  x420 + x421 + x422 >= 1
cons333:  - x424 + x570 + x571 + x572 = 0
cons334:  - x417 - x421 + x424 = 0
cons335:  - x425 + x573 + x574 = 0
cons336:  - x422 + x425 = 0
cons337:  - x426 + x575 + x576 = 0
cons338:  - x419 + x426 = 0
cons339:  x428 + x430 >= 0
cons340:  x427 + x428 + x430 >= 0
cons341:  x432 + x433 >= 1
cons342:  x431 + x432 + x433 >= 1
cons343:  - x435 + x570 + x571 + x572 = 0
cons344:  - x428 - x432 + x435 = 0
cons345:  - x436 + x573 + x574 = 0
cons346:  - x433 + x436 = 0
cons347:  - x437 + x575 + x576 = 0
cons348:  - x430 + x437 = 0
cons349:  x439 + x441 >= 1
cons350:  x438 + x439 + x441 >= 1
cons351:  x443 + x444 >= 1
cons352:  x442 + x443 + x444 >= 1
cons353:  - x446 + x570 + x571 + x572 = 0
cons354:  - x439 - x443 + x446 = 0
cons355:  - x447 + x573 + x574 = 0
cons356:  - x444 + x447 = 0
cons357:  - x448 + x575 + x576 = 0
cons358:  - x441 + x448 = 0
cons359:  x450 + x452 >= 0
cons360:  x449 + x450 + x452 >= 1
cons361:  x454 + x455 >= 0
cons362:  x453 + x454 + x455 >= 0
cons363:  - x457 + x570 + x571 + x572 = 0
cons364:  - x450 - x454 + x457 = 0
cons365:  - x458 + x573 + x574 = 0
cons366:  - x455 + x458 = 0
cons367:  - x459 + x575 + x576 = 0
cons368:  - x452 + x459 = 0
cons369:  x461 + x463 >= 1
cons370:  x460 + x461 + x463 >= 1
cons371:  x465 + x466 >= 1
cons372:  x464 + x465 + x466 >= 1
cons373:  - x468 + x570 + x571 + x572 = 0
cons374:  - x461 - x465 + x468 = 0
cons375:  - x469 + x573 + x574 = 0
cons376:  - x466 + x469 = 0
cons377:  - x470 + x575 + x576 = 0
cons378:  - x463 + x470 = 0
cons379:  x472 + x474 >= 1
cons380:  x471 + x472 + x474 >= 1
cons381:  x476 + x477 >= 0
cons382:  x475 + x476 + x477 >= 1
cons383:  - x479 + x570 + x571 + x572 = 0
cons384:  - x472 - x476 + x479 = 0
cons385:  - x480 + x573 + x574 = 0
cons386:  - x477 + x480 = 0
cons387:  - x481 + x575 + x576 = 0
cons388:  - x474 + x481 = 0
cons389:  x483 + x485 >= 0
cons390:  x482 + x483 + x485 >= 0
cons391:  x487 + x488 >= 1
cons392:  x486 + x487 + x488 >= 1
cons393:  - x490 + x570 + x571 + x572 = 0
cons394:  - x483 - x487 + x490 = 0
cons395:  - x491 + x573 + x574 = 0
cons396:  - x488 + x491 = 0
cons397:  - x492 + x575 + x576 = 0
cons398:  - x485 + x492 = 0
cons399:  x494 + x496 >= 0
cons400:  x493 + x494 + x496 >= 1
cons401:  x498 + x499 >= 0
cons402:  x497 + x498 + x499 >= 1
cons403:  - x501 + x570 + x571 + x572 = 0
cons404:  - x494 - x498 + x501 = 0
cons405:  - x502 + x573 + x574 = 0
cons406:  - x499 + x502 = 0
cons407:  - x503 + x575 + x576 = 0
cons408:  - x496 + x503 = 0
cons409:  x505 + x507 >= 0
cons410:  x504 + x505 + x507 >= 1
cons411:  x509 + x510 >= 0
cons412:  x508 + x509 + x510 >= 1
cons413:  - x512 + x570 + x571 + x572 = 0
cons414:  - x505 - x509 + x512 = 0
cons415:  - x513 + x573 + x574 = 0
cons416:  - x510 + x513 = 0
cons417:  - x514 + x575 + x576 = 0
cons418:  - x507 + x514 = 0
cons419:  x516 + x518 >= 0
cons420:  x515 + x516 + x518 >= 0
cons421:  x520 + x521 >= 0
cons422:  x519 + x520 + x521 >= 1
cons423:  - x523 + x570 + x571 + x572 = 0
cons424:  - x516 - x520 + x523 = 0
cons425:  - x524 + x573 + x574 = 0
cons426:  - x521 + x524 = 0
cons427:  - x525 + x575 + x576 = 0
cons428:  - x518 + x525 = 0
cons429:  x527 + x529 >= 0
cons430:  x526 + x527 + x529 >= 0
cons431:  x531 + x532 >= 1
cons432:  x530 + x531 + x532 >= 1
cons433:  - x534 + x570 + x571 + x572 = 0
cons434:  - x527 - x531 + x534 = 0
cons435:  - x535 + x573 + x574 = 0
cons436:  - x532 + x535 = 0
cons437:  - x536 + x575 + x576 = 0
cons438:  - x529 + x536 = 0
cons439:  x538 + x540 >= 0
cons440:  x537 + x538 + x540 >= 0
cons441:  x542 + x543 >= 1
cons442:  x541 + x542 + x543 >= 1
cons443:  - x545 + x570 + x571 + x572 = 0
cons444:  - x538 - x542 + x545 = 0
cons445:  - x546 + x573 + x574 = 0
cons446:  - x543 + x546 = 0
cons447:  - x547 + x575 + x576 = 0
cons448:  - x540 + x547 = 0
cons449:  x549 + x551 >= 0
cons450:  x548 + x549 + x551 >= 0
cons451:  x553 + x554 >= 0
cons452:  x552 + x553 + x554 >= 1
cons453:  - x556 + x570 + x571 + x572 = 0
cons454:  - x549 - x553 + x556 = 0
cons455:  - x557 + x573 + x574 = 0
cons456:  - x554 + x557 = 0
cons457:  - x558 + x575 + x576 = 0
cons458:  - x551 + x558 = 0
cons459:  x560 + x562 >= 0
cons460:  x559 + x560 + x562 >= 0
cons461:  x564 + x565 >= 1
cons462:  x563 + x564 + x565 >= 1
cons463:  - x567 + x570 + x571 + x572 = 0
cons464:  - x560 - x564 + x567 = 0
cons465:  - x568 + x573 + x574 = 0
cons466:  - x565 + x568 = 0
cons467:  - x569 + x575 + x576 = 0
cons468:  - x562 + x569 = 0
Bounds
End
